
Log started (V11.0.0) Sun Apr 20 11:48:29 2008

Tried aggregator 1 time.
Reduced MIP has 530 rows, 15001 columns, and 30030 nonzeros.
Presolve time =    0.09 sec.
Clique table members: 500.
MIP emphasis: balance optimality and feasibility.
MIP search method: dynamic search.
Parallel mode: none, using 1 thread.
Root relaxation solution time =    0.59 sec.

        Nodes                                         Cuts/
   Node  Left     Objective  IInf  Best Integer     Best Node    ItCnt     Gap

*     0+    0                        28042.0000      211.3349      849   99.25%
*     0+    0                          222.0000      211.3349      849    4.80%
      0     0      212.0000    53      222.0000      Fract: 6      858    4.50%
*     0+    0                          221.0000      212.0000      858    4.07%
      0     0      212.0000    55      221.0000     Covers: 1      869    4.07%
      0     0      212.0000    62      221.0000     Covers: 4      893    4.07%
*     0+    0                          220.0000      212.0000      893    3.64%
*     0+    0                          219.0000      212.0000      893    3.20%
      0     2      212.0000    62      219.0000      212.0000      893    3.20%
*    10+   10                          218.0000      212.0000     1234    2.75%
    100    97      213.0269    61      218.0000      212.0000     5014    2.75%
*   200+  178                          217.0000      212.0000    11641    2.30%
    200   179      215.8811    58      217.0000      212.0000    11641    2.30%
    300   246      215.9646    58      217.0000      212.0000    22016    2.30%
*   400+  305                          216.0000      212.0000    24897    1.85%
    400   306      214.0000    41      216.0000      212.0000    24897    1.85%
    500   372      214.0000    47      216.0000      212.0000    33340    1.85%
*   511+  254                          215.0000      212.0000    35680    1.40%
*   511+  169                          214.0000      212.0000    35680    0.93%
    600   183      213.0000    49      214.0000      212.0000    43063    0.93%
    700   170      213.0000    56      214.0000      212.0000    58200    0.93%
    800   206      212.0000    62      214.0000      212.0000    70027    0.93%
    900   283      213.0000    52      214.0000      212.0000    78606    0.93%
   1000   359      213.0000    96      214.0000      212.0000    88445    0.93%
Elapsed time = 105.11 sec. (tree size =  3.81 MB, solutions = 10)
   1100   451      213.0000    83      214.0000      212.0000    97517    0.93%
   1200   541      212.0000   112      214.0000      212.0000   104142    0.93%
   1300   637      213.0000    61      214.0000      212.0000   107908    0.93%
   1400   712      213.0000    60      214.0000      212.0000   120304    0.93%
   1500   802      213.0000    85      214.0000      212.0000   130815    0.93%
   1600   896      212.0000   129      214.0000      212.0000   144808    0.93%
*  1611+  200                          213.0000      212.0000   145701    0.47%
   1700   225      212.0000   128      213.0000      212.0000   250771    0.47%
   1800   309      212.0000   132      213.0000      212.0000   279214    0.47%
   1900   365      212.0000   178      213.0000      212.0000   348142    0.47%
   2000   411    infeasible            213.0000      212.0000   435953    0.47%
Elapsed time = 526.19 sec. (tree size =  6.93 MB, solutions = 11)
   2100   449      212.0000    94      213.0000      212.0000   560741    0.47%
   2200   525      212.0000   120      213.0000      212.0000   587749    0.47%
   2300   597      212.0000   151      213.0000      212.0000   619929    0.47%
   2400   659      212.0000   136      213.0000      212.0000   667244    0.47%
   2500   709      212.0000   135      213.0000      212.0000   732857    0.47%
   2600   753      212.0000   233      213.0000      212.0000   814701    0.47%
   2700   817    infeasible            213.0000      212.0000   869845    0.47%
   2800   881      212.0000   142      213.0000      212.0000   930941    0.47%
   2900   939      212.0000   231      213.0000      212.0000   991209    0.47%
   3000  1003      212.0000   225      213.0000      212.0000  1043135    0.47%
Elapsed time = 1413.58 sec. (tree size = 21.36 MB, solutions = 11)
   3100  1077      212.0000   145      213.0000      212.0000  1089604    0.47%
   3200  1145      212.0000   255      213.0000      212.0000  1130976    0.47%
   3300  1225      212.0000   239      213.0000      212.0000  1162225    0.47%
   3400  1279      212.0000   258      213.0000      212.0000  1228859    0.47%
   3500  1347    infeasible            213.0000      212.0000  1281339    0.47%
   3600  1403      212.0000   246      213.0000      212.0000  1349089    0.47%
   3700  1467      212.0000   178      213.0000      212.0000  1403033    0.47%
   3800  1531      212.0000   188      213.0000      212.0000  1469687    0.47%
   3900  1601      212.0000   221      213.0000      212.0000  1513232    0.47%
   4000  1673      212.0000   192      213.0000      212.0000  1564952    0.47%
Elapsed time = 2297.39 sec. (tree size = 41.27 MB, solutions = 11)
   4100  1745      212.0000   169      213.0000      212.0000  1600317    0.47%
   4200  1807      212.0000   199      213.0000      212.0000  1669377    0.47%
   4300  1881      212.0000   228      213.0000      212.0000  1713924    0.47%
   4400  1939      212.0000   278      213.0000      212.0000  1782748    0.47%
   4500  2007      212.0000   266      213.0000      212.0000  1838987    0.47%
   4600  2071      212.0000   158      213.0000      212.0000  1896450    0.47%
   4700  2103    infeasible            213.0000      212.0000  2007958    0.47%
   4800  2123    infeasible            213.0000      212.0000  2134270    0.47%
   4900  2173      212.0000   297      213.0000      212.0000  2205988    0.47%
   5000  2213      212.0000   261      213.0000      212.0000  2313846    0.47%
Elapsed time = 3699.78 sec. (tree size = 60.28 MB, solutions = 11)
   5100  2295    infeasible            213.0000      212.0000  2347466    0.47%
   5200  2355    infeasible            213.0000      212.0000  2422136    0.47%
   5300  2427      212.0000   184      213.0000      212.0000  2474502    0.47%
   5400  2465      212.0000   273      213.0000      212.0000  2595456    0.47%
   5500  2513    infeasible            213.0000      212.0000  2664247    0.47%
   5600  2551      212.0000   272      213.0000      212.0000  2766881    0.47%
   5700  2613    infeasible            213.0000      212.0000  2826708    0.47%
   5800  2681      212.0000   222      213.0000      212.0000  2909178    0.47%
   5900  2751      212.0000   296      213.0000      212.0000  2961375    0.47%
   6000  2797      212.0000   286      213.0000      212.0000  3060213    0.47%
Elapsed time = 5164.22 sec. (tree size = 82.41 MB, solutions = 11)
   6100  2873      212.0000   229      213.0000      212.0000  3113972    0.47%
   6200  2931      212.0000   206      213.0000      212.0000  3188725    0.47%
   6300  2947    infeasible            213.0000      212.0000  3316120    0.47%
   6400  2985      212.0000   248      213.0000      212.0000  3410019    0.47%
   6500  3025    infeasible            213.0000      212.0000  3506196    0.47%
   6600  3067      212.0000   212      213.0000      212.0000  3613083    0.47%
   6700  3119      212.0000   322      213.0000      212.0000  3706241    0.47%
   6800  3175    infeasible            213.0000      212.0000  3779334    0.47%
   6900  3209      212.0000   275      213.0000      212.0000  3892376    0.47%

Cover cuts applied:  2445
Gomory fractional cuts applied:  2

Solution pool: 11 solutions saved.

MIP - Time limit exceeded, integer feasible:  Objective = 2.1300000000e+002
Current MIP best bound = 2.1200000000e+002 (gap = 1, 0.47%)
Solution time = 7200.13 sec.  Iterations = 4032304  Nodes = 6997 (3235)


Incumbent solution
Variable Name           Solution Value
Cmax                        213.000000
X_1_2                         1.000000
X_2_16                        1.000000
X_3_11                        1.000000
X_4_7                         1.000000
X_5_15                        1.000000
X_6_17                        1.000000
X_7_27                        1.000000
X_8_10                        1.000000
X_9_24                        1.000000
X_10_27                       1.000000
X_11_16                       1.000000
X_12_16                       1.000000
X_13_2                        1.000000
X_14_24                       1.000000
X_15_15                       1.000000
X_16_1                        1.000000
X_17_21                       1.000000
X_18_22                       1.000000
X_19_14                       1.000000
X_20_1                        1.000000
X_21_26                       1.000000
X_22_9                        1.000000
X_23_21                       1.000000
X_24_9                        1.000000
X_25_11                       1.000000
X_26_1                        1.000000
X_27_4                        1.000000
X_28_25                       1.000000
X_29_4                        1.000000
X_30_18                       1.000000
X_31_3                        1.000000
X_32_2                        1.000000
X_33_26                       1.000000
X_34_21                       1.000000
X_35_2                        1.000000
X_36_4                        1.000000
X_37_3                        1.000000
X_38_15                       1.000000
X_39_16                       1.000000
X_40_28                       1.000000
X_41_17                       1.000000
X_42_19                       1.000000
X_43_18                       1.000000
X_44_22                       1.000000
X_45_16                       1.000000
X_46_13                       1.000000
X_47_18                       1.000000
X_48_6                        1.000000
X_49_8                        1.000000
X_50_5                        1.000000
X_51_6                        1.000000
X_52_27                       1.000000
X_53_12                       1.000000
X_54_20                       1.000000
X_55_2                        1.000000
X_56_10                       1.000000
X_57_9                        1.000000
X_58_23                       1.000000
X_59_17                       1.000000
X_60_14                       1.000000
X_61_7                        1.000000
X_62_22                       1.000000
X_63_23                       1.000000
X_64_6                        1.000000
X_65_25                       1.000000
X_66_26                       1.000000
X_67_17                       1.000000
X_68_26                       1.000000
X_69_8                        1.000000
X_70_5                        1.000000
X_71_15                       1.000000
X_72_9                        1.000000
X_73_26                       1.000000
X_74_30                       1.000000
X_75_27                       1.000000
X_76_8                        1.000000
X_77_22                       1.000000
X_78_19                       1.000000
X_79_14                       1.000000
X_80_29                       1.000000
X_81_19                       1.000000
X_82_5                        1.000000
X_83_22                       1.000000
X_84_11                       1.000000
X_85_27                       1.000000
X_86_3                        1.000000
X_87_23                       1.000000
X_88_13                       1.000000
X_89_7                        1.000000
X_90_20                       1.000000
X_91_11                       1.000000
X_92_20                       1.000000
X_93_16                       1.000000
X_94_25                       1.000000
X_95_3                        1.000000
X_96_29                       1.000000
X_97_20                       1.000000
X_98_26                       1.000000
X_99_8                        1.000000
X_100_16                      1.000000
X_101_3                       1.000000
X_102_13                      1.000000
X_103_14                      1.000000
X_104_25                      1.000000
X_105_24                      1.000000
X_106_30                      1.000000
X_107_21                      1.000000
X_108_25                      1.000000
X_109_29                      1.000000
X_110_15                      1.000000
X_111_11                      1.000000
X_112_21                      1.000000
X_113_26                      1.000000
X_114_6                       1.000000
X_115_24                      1.000000
X_116_25                      1.000000
X_117_25                      1.000000
X_118_2                       1.000000
X_119_29                      1.000000
X_120_6                       1.000000
X_121_2                       1.000000
X_122_12                      1.000000
X_123_19                      1.000000
X_124_2                       1.000000
X_125_21                      1.000000
X_126_11                      1.000000
X_127_19                      1.000000
X_128_7                       1.000000
X_129_16                      1.000000
X_130_14                      1.000000
X_131_26                      1.000000
X_132_18                      1.000000
X_133_4                       1.000000
X_134_26                      1.000000
X_135_3                       1.000000
X_136_14                      1.000000
X_137_15                      1.000000
X_138_21                      1.000000
X_139_1                       1.000000
X_140_15                      1.000000
X_141_7                       1.000000
X_142_22                      1.000000
X_143_14                      1.000000
X_144_9                       1.000000
X_145_25                      1.000000
X_146_21                      1.000000
X_147_10                      1.000000
X_148_20                      1.000000
X_149_18                      1.000000
X_150_13                      1.000000
X_151_5                       1.000000
X_152_28                      1.000000
X_153_20                      1.000000
X_154_9                       1.000000
X_155_18                      1.000000
X_156_1                       1.000000
X_157_14                      1.000000
X_158_11                      1.000000
X_159_2                       1.000000
X_160_18                      1.000000
X_161_30                      1.000000
X_162_14                      1.000000
X_163_9                       1.000000
X_164_5                       1.000000
X_165_6                       1.000000
X_166_30                      1.000000
X_167_19                      1.000000
X_168_27                      1.000000
X_169_26                      1.000000
X_170_30                      1.000000
X_171_22                      1.000000
X_172_12                      1.000000
X_173_8                       1.000000
X_174_10                      1.000000
X_175_4                       1.000000
X_176_11                      1.000000
X_177_10                      1.000000
X_178_30                      1.000000
X_179_24                      1.000000
X_180_23                      1.000000
X_181_5                       1.000000
X_182_10                      1.000000
X_183_29                      1.000000
X_184_23                      1.000000
X_185_5                       1.000000
X_186_2                       1.000000
X_187_27                      1.000000
X_188_18                      1.000000
X_189_26                      1.000000
X_190_5                       1.000000
X_191_15                      1.000000
X_192_26                      1.000000
X_193_3                       1.000000
X_194_7                       1.000000
X_195_25                      1.000000
X_196_29                      1.000000
X_197_16                      1.000000
X_198_18                      1.000000
X_199_13                      1.000000
X_200_8                       1.000000
X_201_16                      1.000000
X_202_4                       1.000000
X_203_6                       1.000000
X_204_19                      1.000000
X_205_3                       1.000000
X_206_8                       1.000000
X_207_19                      1.000000
X_208_20                      1.000000
X_209_11                      1.000000
X_210_16                      1.000000
X_211_22                      1.000000
X_212_25                      1.000000
X_213_28                      1.000000
X_214_25                      1.000000
X_215_29                      1.000000
X_216_3                       1.000000
X_217_28                      1.000000
X_218_11                      1.000000
X_219_8                       1.000000
X_220_6                       1.000000
X_221_11                      1.000000
X_222_29                      1.000000
X_223_10                      1.000000
X_224_2                       1.000000
X_225_7                       1.000000
X_226_13                      1.000000
X_227_1                       1.000000
X_228_19                      1.000000
X_229_11                      1.000000
X_230_15                      1.000000
X_231_10                      1.000000
X_232_12                      1.000000
X_233_17                      1.000000
X_234_23                      1.000000
X_235_15                      1.000000
X_236_29                      1.000000
X_237_8                       1.000000
X_238_19                      1.000000
X_239_20                      1.000000
X_240_22                      1.000000
X_241_22                      1.000000
X_242_26                      1.000000
X_243_18                      1.000000
X_244_21                      1.000000
X_245_30                      1.000000
X_246_30                      1.000000
X_247_1                       1.000000
X_248_13                      1.000000
X_249_27                      1.000000
X_250_3                       1.000000
X_251_7                       1.000000
X_252_24                      1.000000
X_253_4                       1.000000
X_254_22                      1.000000
X_255_2                       1.000000
X_256_30                      1.000000
X_257_20                      1.000000
X_258_21                      1.000000
X_259_21                      1.000000
X_260_27                      1.000000
X_261_13                      1.000000
X_262_18                      1.000000
X_263_23                      1.000000
X_264_29                      1.000000
X_265_26                      1.000000
X_266_5                       1.000000
X_267_26                      1.000000
X_268_9                       1.000000
X_269_16                      1.000000
X_270_8                       1.000000
X_271_28                      1.000000
X_272_23                      1.000000
X_273_3                       1.000000
X_274_19                      1.000000
X_275_30                      1.000000
X_276_10                      1.000000
X_277_2                       1.000000
X_278_5                       1.000000
X_279_7                       1.000000
X_280_17                      1.000000
X_281_16                      1.000000
X_282_13                      1.000000
X_283_26                      1.000000
X_284_10                      1.000000
X_285_24                      1.000000
X_286_18                      1.000000
X_287_4                       1.000000
X_288_20                      1.000000
X_289_10                      1.000000
X_290_21                      1.000000
X_291_12                      1.000000
X_292_25                      1.000000
X_293_8                       1.000000
X_294_1                       1.000000
X_295_9                       1.000000
X_296_4                       1.000000
X_297_21                      1.000000
X_298_6                       1.000000
X_299_13                      1.000000
X_300_8                       1.000000
X_301_17                      1.000000
X_302_5                       1.000000
X_303_27                      1.000000
X_304_6                       1.000000
X_305_6                       1.000000
X_306_28                      1.000000
X_307_25                      1.000000
X_308_19                      1.000000
X_309_10                      1.000000
X_310_17                      1.000000
X_311_16                      1.000000
X_312_11                      1.000000
X_313_17                      1.000000
X_314_8                       1.000000
X_315_18                      1.000000
X_316_22                      1.000000
X_317_29                      1.000000
X_318_28                      1.000000
X_319_12                      1.000000
X_320_24                      1.000000
X_321_3                       1.000000
X_322_3                       1.000000
X_323_25                      1.000000
X_324_28                      1.000000
X_325_13                      1.000000
X_326_10                      1.000000
X_327_14                      1.000000
X_328_5                       1.000000
X_329_9                       1.000000
X_330_3                       1.000000
X_331_4                       1.000000
X_332_1                       1.000000
X_333_14                      1.000000
X_334_7                       1.000000
X_335_30                      1.000000
X_336_13                      1.000000
X_337_27                      1.000000
X_338_21                      1.000000
X_339_29                      1.000000
X_340_13                      1.000000
X_341_4                       1.000000
X_342_17                      1.000000
X_343_15                      1.000000
X_344_1                       1.000000
X_345_20                      1.000000
X_346_4                       1.000000
X_347_5                       1.000000
X_348_15                      1.000000
X_349_16                      1.000000
X_350_20                      1.000000
X_351_21                      1.000000
X_352_11                      1.000000
X_353_2                       1.000000
X_354_24                      1.000000
X_355_9                       1.000000
X_356_27                      1.000000
X_357_8                       1.000000
X_358_1                       1.000000
X_359_7                       1.000000
X_360_14                      1.000000
X_361_1                       1.000000
X_362_1                       1.000000
X_363_20                      1.000000
X_364_25                      1.000000
X_365_12                      1.000000
X_366_2                       1.000000
X_367_17                      1.000000
X_368_9                       1.000000
X_369_18                      1.000000
X_370_23                      1.000000
X_371_24                      1.000000
X_372_24                      1.000000
X_373_30                      1.000000
X_374_3                       1.000000
X_375_26                      1.000000
X_376_7                       1.000000
X_377_12                      1.000000
X_378_22                      1.000000
X_379_23                      1.000000
X_380_23                      1.000000
X_381_12                      1.000000
X_382_23                      1.000000
X_383_23                      1.000000
X_384_18                      1.000000
X_385_15                      1.000000
X_386_14                      1.000000
X_387_5                       1.000000
X_388_14                      1.000000
X_389_1                       1.000000
X_390_8                       1.000000
X_391_15                      1.000000
X_392_12                      1.000000
X_393_1                       1.000000
X_394_24                      1.000000
X_395_2                       1.000000
X_396_29                      1.000000
X_397_23                      1.000000
X_398_22                      1.000000
X_399_12                      1.000000
X_400_24                      1.000000
X_401_16                      1.000000
X_402_9                       1.000000
X_403_10                      1.000000
X_404_29                      1.000000
X_405_15                      1.000000
X_406_18                      1.000000
X_407_9                       1.000000
X_408_19                      1.000000
X_409_3                       1.000000
X_410_12                      1.000000
X_411_27                      1.000000
X_412_4                       1.000000
X_413_21                      1.000000
X_414_28                      1.000000
X_415_15                      1.000000
X_416_17                      1.000000
X_417_7                       1.000000
X_418_7                       1.000000
X_419_19                      1.000000
X_420_21                      1.000000
X_421_11                      1.000000
X_422_17                      1.000000
X_423_24                      1.000000
X_424_6                       1.000000
X_425_24                      1.000000
X_426_22                      1.000000
X_427_16                      1.000000
X_428_27                      1.000000
X_429_12                      1.000000
X_430_20                      1.000000
X_431_14                      1.000000
X_432_13                      1.000000
X_433_28                      1.000000
X_434_12                      1.000000
X_435_10                      1.000000
X_436_19                      1.000000
X_437_1                       1.000000
X_438_24                      1.000000
X_439_9                       1.000000
X_440_28                      1.000000
X_441_12                      1.000000
X_442_25                      1.000000
X_443_27                      1.000000
X_444_4                       1.000000
X_445_14                      1.000000
X_446_27                      1.000000
X_447_5                       1.000000
X_448_30                      1.000000
X_449_28                      1.000000
X_450_7                       1.000000
X_451_17                      1.000000
X_452_30                      1.000000
X_453_20                      1.000000
X_454_7                       1.000000
X_455_17                      1.000000
X_456_30                      1.000000
X_457_2                       1.000000
X_458_18                      1.000000
X_459_10                      1.000000
X_460_27                      1.000000
X_461_28                      1.000000
X_462_5                       1.000000
X_463_1                       1.000000
X_464_9                       1.000000
X_465_9                       1.000000
X_466_25                      1.000000
X_467_15                      1.000000
X_468_29                      1.000000
X_469_22                      1.000000
X_470_30                      1.000000
X_471_6                       1.000000
X_472_15                      1.000000
X_473_8                       1.000000
X_474_6                       1.000000
X_475_23                      1.000000
X_476_28                      1.000000
X_477_1                       1.000000
X_478_28                      1.000000
X_479_6                       1.000000
X_480_21                      1.000000
X_481_4                       1.000000
X_482_23                      1.000000
X_483_17                      1.000000
X_484_29                      1.000000
X_485_6                       1.000000
X_486_25                      1.000000
X_487_10                      1.000000
X_488_8                       1.000000
X_489_13                      1.000000
X_490_18                      1.000000
X_491_12                      1.000000
X_492_30                      1.000000
X_493_30                      1.000000
X_494_4                       1.000000
X_495_13                      1.000000
X_496_28                      1.000000
X_497_11                      1.000000
X_498_12                      1.000000
X_499_4                       1.000000
X_500_5                       1.000000
All other variables in the range 1-15001 are 0.
